param n := 249;
param c := 1000;
param : V : p w :=
   0	  50	 484
   1	  26	 257
   2	  68	 259
   3	  82	 456
   4	   5	 259
   5	  52	 285
   6	  15	 353
   7	  81	 250
   8	  74	 397
   9	  26	 367
  10	  16	 260
  11	  32	 373
  12	  63	 405
  13	  34	 256
  14	  87	 339
  15	  79	 431
  16	  35	 269
  17	   7	 300
  18	   6	 494
  19	  23	 250
  20	   1	 256
  21	   1	 443
  22	  61	 270
  23	  79	 287
  24	  70	 373
  25	  15	 288
  26	  25	 339
  27	  95	 401
  28	  23	 266
  29	  48	 333
  30	  53	 374
  31	  99	 281
  32	  14	 345
  33	  90	 441
  34	  42	 258
  35	  45	 301
  36	  24	 374
  37	  69	 270
  38	  87	 356
  39	  92	 365
  40	  65	 290
  41	  31	 345
  42	  22	 443
  43	  33	 263
  44	  11	 294
  45	  13	 484
  46	  80	 253
  47	  63	 263
  48	  37	 419
  49	  55	 255
  50	  27	 326
  51	  72	 459
  52	  24	 261
  53	  44	 280
  54	  97	 360
  55	   5	 263
  56	  27	 377
  57	  52	 407
  58	  97	 282
  59	  48	 311
  60	   1	 372
  61	  84	 260
  62	  73	 368
  63	  41	 445
  64	   7	 272
  65	  63	 283
  66	  81	 357
  67	  42	 311
  68	  32	 332
  69	  79	 494
  70	  93	 251
  71	  36	 255
  72	  68	 391
  73	   9	 286
  74	   3	 323
  75	  37	 390
  76	  32	 281
  77	  19	 329
  78	  42	 476
  79	  12	 250
  80	  60	 274
  81	  82	 458
  82	  57	 252
  83	  23	 290
  84	  86	 448
  85	  45	 271
  86	  30	 281
  87	   4	 394
  88	  88	 287
  89	  49	 319
  90	  44	 357
  91	  13	 256
  92	  51	 387
  93	   3	 449
  94	  88	 264
  95	  54	 287
  96	  79	 384
  97	  19	 281
  98	  25	 335
  99	  84	 433
 100	   8	 271
 101	  28	 296
 102	  23	 424
 103	  89	 265
 104	   6	 311
 105	  99	 391
 106	  42	 259
 107	  92	 350
 108	  22	 467
 109	  85	 254
 110	  67	 279
 111	  70	 387
 112	  35	 264
 113	   3	 349
 114	  67	 463
 115	  61	 257
 116	  24	 280
 117	  50	 421
 118	  32	 255
 119	  75	 324
 120	  14	 442
 121	  14	 270
 122	  13	 288
 123	  73	 421
 124	   9	 255
 125	  23	 324
 126	   7	 410
 127	  46	 286
 128	  81	 304
 129	  14	 392
 130	  52	 273
 131	   6	 335
 132	  38	 397
 133	  41	 252
 134	  80	 351
 135	  31	 414
 136	  58	 278
 137	  93	 308
 138	  65	 390
 139	  33	 281
 140	  87	 329
 141	  84	 450
 142	  83	 252
 143	  95	 298
 144	  30	 377
 145	  50	 299
 146	  38	 324
 147	  25	 434
 148	  40	 264
 149	  83	 302
 150	  93	 453
 151	  93	 271
 152	  38	 276
 153	   6	 469
 154	  52	 257
 155	  83	 274
 156	  91	 401
 157	  42	 256
 158	  12	 343
 159	  76	 396
 160	  15	 285
 161	 100	 319
 162	  95	 413
 163	  75	 290
 164	  97	 297
 165	  99	 366
 166	  96	 259
 167	  66	 375
 168	  90	 461
 169	  26	 253
 170	  11	 286
 171	  39	 374
 172	   8	 263
 173	  66	 363
 174	  82	 390
 175	  28	 292
 176	  93	 318
 177	  50	 414
 178	  39	 257
 179	  15	 329
 180	  29	 490
 181	  18	 254
 182	  21	 256
 183	  70	 350
 184	  89	 258
 185	  65	 392
 186	  58	 488
 187	  56	 250
 188	  15	 262
 189	  58	 459
 190	  14	 269
 191	  28	 272
 192	  27	 383
 193	  19	 303
 194	  41	 314
 195	  13	 477
 196	  48	 252
 197	  42	 271
 198	  20	 457
 199	  96	 265
 200	  19	 278
 201	  15	 496
 202	  78	 250
 203	  86	 254
 204	  49	 356
 205	  41	 271
 206	  11	 373
 207	 100	 373
 208	 100	 281
 209	  12	 346
 210	  47	 368
 211	  32	 315
 212	  85	 317
 213	  29	 403
 214	  74	 290
 215	  11	 307
 216	  27	 374
 217	  11	 264
 218	  21	 362
 219	  62	 487
 220	  49	 253
 221	  62	 260
 222	  24	 407
 223	  19	 253
 224	  34	 340
 225	  33	 466
 226	  78	 254
 227	   8	 280
 228	  32	 382
 229	  77	 285
 230	  99	 333
 231	   5	 369
 232	  56	 269
 233	  26	 362
 234	   2	 433
 235	  83	 267
 236	  66	 300
 237	   2	 367
 238	  30	 311
 239	   4	 322
 240	   8	 381
 241	  13	 273
 242	  25	 346
 243	  53	 481
 244	  96	 250
 245	  60	 269
 246	  11	 430
 247	  12	 260
 248	  43	 310
;

set E :=
   0	   5
   0	   7
   0	  14
   0	  20
   0	  24
   0	  30
   0	  37
   0	  51
   0	  54
   0	  56
   0	  57
   0	  61
   0	  63
   0	  73
   0	  76
   0	  83
   0	  86
   0	  97
   0	 101
   0	 112
   0	 115
   0	 126
   0	 151
   0	 156
   0	 160
   0	 185
   0	 197
   0	 202
   0	 213
   0	 216
   0	 238
   0	 245
   1	   2
   1	   3
   1	   6
   1	  10
   1	  39
   1	  47
   1	  57
   1	  65
   1	  70
   1	  79
   1	  94
   1	  95
   1	  98
   1	 103
   1	 105
   1	 107
   1	 114
   1	 123
   1	 130
   1	 136
   1	 140
   1	 149
   1	 160
   1	 166
   1	 170
   1	 181
   1	 188
   1	 189
   1	 201
   1	 209
   1	 211
   1	 244
   2	   4
   2	  34
   2	  37
   2	  73
   2	  78
   2	  98
   2	 107
   2	 109
   2	 112
   2	 113
   2	 126
   2	 127
   2	 148
   2	 151
   2	 161
   2	 167
   2	 170
   2	 176
   2	 177
   2	 180
   2	 185
   2	 186
   2	 200
   2	 201
   2	 209
   2	 219
   2	 236
   2	 239
   3	   9
   3	  21
   3	  30
   3	  33
   3	  72
   3	  80
   3	  81
   3	  89
   3	  90
   3	  94
   3	  98
   3	 109
   3	 112
   3	 130
   3	 155
   3	 161
   3	 162
   3	 163
   3	 168
   3	 190
   3	 197
   3	 199
   3	 218
   3	 238
   3	 247
   3	 248
   4	   8
   4	  10
   4	  17
   4	  18
   4	  28
   4	  33
   4	  38
   4	  41
   4	  43
   4	  65
   4	  74
   4	  85
   4	  98
   4	 123
   4	 126
   4	 140
   4	 157
   4	 159
   4	 184
   4	 187
   4	 191
   4	 198
   4	 210
   4	 211
   4	 232
   4	 241
   4	 248
   5	   7
   5	  17
   5	  21
   5	  29
   5	  43
   5	  45
   5	  46
   5	  54
   5	  63
   5	  65
   5	  69
   5	  88
   5	 105
   5	 106
   5	 108
   5	 114
   5	 142
   5	 153
   5	 157
   5	 186
   5	 192
   5	 201
   5	 203
   5	 208
   5	 231
   5	 234
   5	 239
   5	 243
   6	  21
   6	  42
   6	  48
   6	  73
   6	  76
   6	 109
   6	 110
   6	 123
   6	 166
   6	 169
   6	 174
   6	 200
   6	 202
   6	 221
   6	 227
   7	  21
   7	  36
   7	  38
   7	  49
   7	  53
   7	  62
   7	  69
   7	  71
   7	  79
   7	  87
   7	  88
   7	  93
   7	 105
   7	 106
   7	 120
   7	 131
   7	 149
   7	 154
   7	 185
   7	 229
   7	 241
   7	 243
   8	  11
   8	  12
   8	  25
   8	  28
   8	  52
   8	  66
   8	  79
   8	  92
   8	  96
   8	 112
   8	 127
   8	 150
   8	 190
   8	 192
   8	 193
   8	 198
   8	 199
   8	 205
   8	 206
   8	 207
   8	 219
   9	  31
   9	  50
   9	  53
   9	  55
   9	  58
   9	  88
   9	  94
   9	 103
   9	 108
   9	 110
   9	 115
   9	 125
   9	 145
   9	 156
   9	 158
   9	 166
   9	 184
   9	 193
   9	 194
   9	 197
   9	 199
   9	 206
   9	 215
   9	 223
   9	 224
  10	  27
  10	  33
  10	  34
  10	  51
  10	  66
  10	  67
  10	  70
  10	  72
  10	  95
  10	  98
  10	  99
  10	 101
  10	 110
  10	 113
  10	 116
  10	 121
  10	 125
  10	 128
  10	 172
  10	 182
  10	 204
  10	 223
  10	 226
  10	 230
  11	  17
  11	  20
  11	  44
  11	  45
  11	  46
  11	  56
  11	  75
  11	  87
  11	  99
  11	 107
  11	 108
  11	 115
  11	 119
  11	 121
  11	 122
  11	 127
  11	 129
  11	 132
  11	 133
  11	 176
  11	 188
  11	 190
  11	 198
  11	 204
  11	 224
  11	 227
  11	 239
  12	  13
  12	  14
  12	  22
  12	  32
  12	  47
  12	  52
  12	  53
  12	  54
  12	  55
  12	  94
  12	 101
  12	 114
  12	 125
  12	 127
  12	 143
  12	 147
  12	 156
  12	 165
  12	 191
  12	 224
  13	  22
  13	  31
  13	  33
  13	  35
  13	  39
  13	  44
  13	  45
  13	  54
  13	  65
  13	  94
  13	 100
  13	 101
  13	 118
  13	 125
  13	 156
  13	 173
  13	 207
  13	 217
  13	 233
  13	 247
  13	 248
  14	  17
  14	  19
  14	  31
  14	  41
  14	  48
  14	  68
  14	  82
  14	  98
  14	 103
  14	 139
  14	 155
  14	 156
  14	 166
  14	 167
  14	 180
  14	 182
  14	 188
  14	 191
  14	 197
  14	 205
  14	 214
  14	 247
  15	  37
  15	  40
  15	  62
  15	  78
  15	  87
  15	  90
  15	  93
  15	 113
  15	 116
  15	 117
  15	 125
  15	 134
  15	 135
  15	 139
  15	 142
  15	 165
  15	 193
  15	 198
  15	 204
  15	 217
  15	 223
  15	 232
  15	 243
  15	 247
  16	  28
  16	  30
  16	  44
  16	  54
  16	  62
  16	  72
  16	  73
  16	  95
  16	 125
  16	 151
  16	 162
  16	 165
  16	 173
  16	 183
  16	 184
  16	 192
  16	 198
  16	 212
  16	 239
  16	 245
  16	 248
  17	  24
  17	  31
  17	  32
  17	  47
  17	  53
  17	  56
  17	  57
  17	  59
  17	  81
  17	  89
  17	 110
  17	 119
  17	 124
  17	 133
  17	 142
  17	 156
  17	 157
  17	 175
  17	 224
  17	 229
  17	 243
  18	  20
  18	  28
  18	  40
  18	  53
  18	  75
  18	  78
  18	  87
  18	  98
  18	 116
  18	 123
  18	 140
  18	 146
  18	 147
  18	 166
  18	 188
  18	 229
  18	 240
  18	 242
  19	  35
  19	  38
  19	  41
  19	  52
  19	  74
  19	  79
  19	  89
  19	  90
  19	 100
  19	 104
  19	 113
  19	 119
  19	 125
  19	 127
  19	 133
  19	 135
  19	 160
  19	 178
  19	 192
  19	 198
  19	 211
  19	 232
  19	 241
  19	 244
  20	  27
  20	  30
  20	  32
  20	  37
  20	  43
  20	  50
  20	  61
  20	  65
  20	  71
  20	  77
  20	  79
  20	  85
  20	 122
  20	 124
  20	 134
  20	 137
  20	 138
  20	 166
  20	 169
  20	 205
  20	 246
  21	  26
  21	  33
  21	  55
  21	  57
  21	  64
  21	  71
  21	  92
  21	  99
  21	 104
  21	 107
  21	 114
  21	 124
  21	 131
  21	 134
  21	 162
  21	 171
  21	 181
  21	 200
  21	 204
  21	 224
  21	 225
  21	 226
  21	 234
  21	 240
  21	 245
  22	  45
  22	  47
  22	  60
  22	  70
  22	  79
  22	 104
  22	 112
  22	 113
  22	 130
  22	 134
  22	 145
  22	 148
  22	 149
  22	 159
  22	 185
  22	 186
  22	 187
  22	 190
  22	 211
  22	 212
  22	 231
  22	 233
  23	  30
  23	  33
  23	  44
  23	  45
  23	  48
  23	  51
  23	  52
  23	  64
  23	  81
  23	 107
  23	 108
  23	 115
  23	 121
  23	 123
  23	 132
  23	 159
  23	 174
  23	 191
  23	 198
  23	 203
  23	 210
  23	 212
  23	 223
  23	 227
  23	 239
  23	 243
  23	 246
  24	  30
  24	  32
  24	  33
  24	  50
  24	  51
  24	  69
  24	  76
  24	  78
  24	  80
  24	  85
  24	  91
  24	  95
  24	 100
  24	 110
  24	 114
  24	 133
  24	 137
  24	 162
  24	 170
  24	 175
  24	 183
  24	 192
  24	 193
  24	 226
  24	 240
  24	 243
  24	 245
  25	  31
  25	  37
  25	  39
  25	  44
  25	  67
  25	  89
  25	  90
  25	  95
  25	  96
  25	  97
  25	  99
  25	 107
  25	 112
  25	 113
  25	 116
  25	 121
  25	 124
  25	 155
  25	 162
  25	 179
  25	 192
  25	 205
  25	 210
  25	 226
  25	 227
  25	 242
  26	  51
  26	  52
  26	  71
  26	  84
  26	  94
  26	  97
  26	 105
  26	 115
  26	 133
  26	 134
  26	 136
  26	 142
  26	 170
  26	 173
  26	 194
  26	 202
  26	 203
  26	 205
  26	 218
  26	 245
  26	 247
  27	  28
  27	  66
  27	  71
  27	  79
  27	  80
  27	  92
  27	  95
  27	 103
  27	 108
  27	 110
  27	 114
  27	 117
  27	 171
  27	 174
  27	 189
  27	 197
  27	 200
  27	 207
  27	 220
  27	 245
  28	  40
  28	  52
  28	  71
  28	  73
  28	  76
  28	 101
  28	 120
  28	 124
  28	 128
  28	 131
  28	 141
  28	 160
  28	 161
  28	 191
  28	 207
  28	 209
  28	 217
  28	 227
  29	  30
  29	  38
  29	  48
  29	  66
  29	  73
  29	  94
  29	  95
  29	  99
  29	 100
  29	 101
  29	 115
  29	 132
  29	 141
  29	 151
  29	 176
  29	 184
  29	 185
  29	 191
  29	 200
  29	 205
  29	 213
  29	 224
  30	  37
  30	  59
  30	  60
  30	  65
  30	  79
  30	  90
  30	  97
  30	 101
  30	 106
  30	 120
  30	 128
  30	 138
  30	 153
  30	 168
  30	 170
  30	 171
  30	 176
  30	 183
  30	 188
  30	 219
  30	 225
  30	 233
  30	 242
  30	 245
  31	  35
  31	  39
  31	  43
  31	  61
  31	  81
  31	  86
  31	 104
  31	 108
  31	 110
  31	 133
  31	 142
  31	 156
  31	 159
  31	 195
  31	 212
  32	  39
  32	  46
  32	  49
  32	  54
  32	  57
  32	  74
  32	  82
  32	  84
  32	  94
  32	 124
  32	 132
  32	 141
  32	 157
  32	 167
  32	 172
  32	 182
  32	 187
  32	 190
  32	 209
  32	 217
  32	 224
  32	 231
  32	 240
  33	  55
  33	  62
  33	 100
  33	 102
  33	 111
  33	 125
  33	 131
  33	 137
  33	 146
  33	 153
  33	 160
  33	 176
  33	 178
  33	 181
  33	 182
  33	 187
  33	 192
  33	 197
  33	 205
  33	 222
  33	 232
  34	  38
  34	  41
  34	  48
  34	  63
  34	  66
  34	  87
  34	  94
  34	  99
  34	 101
  34	 122
  34	 126
  34	 147
  34	 152
  34	 155
  34	 172
  34	 176
  34	 178
  34	 183
  34	 192
  34	 194
  34	 213
  34	 231
  34	 236
  34	 248
  35	  49
  35	  55
  35	  56
  35	  74
  35	  79
  35	  85
  35	  96
  35	 103
  35	 117
  35	 124
  35	 127
  35	 131
  35	 147
  35	 150
  35	 175
  35	 178
  35	 182
  35	 197
  35	 200
  35	 202
  35	 206
  35	 208
  35	 214
  35	 233
  35	 245
  36	  40
  36	  47
  36	  53
  36	  64
  36	  72
  36	  86
  36	  87
  36	  90
  36	 121
  36	 137
  36	 138
  36	 146
  36	 153
  36	 175
  36	 192
  36	 195
  36	 200
  36	 203
  36	 209
  36	 220
  36	 221
  36	 226
  36	 238
  36	 240
  36	 243
  37	  38
  37	  53
  37	  67
  37	  68
  37	  78
  37	  85
  37	  87
  37	  88
  37	  89
  37	  93
  37	  94
  37	  97
  37	 104
  37	 111
  37	 113
  37	 114
  37	 125
  37	 129
  37	 133
  37	 164
  37	 172
  37	 199
  37	 201
  37	 208
  37	 212
  37	 220
  37	 227
  37	 230
  37	 233
  37	 238
  37	 248
  38	  57
  38	  61
  38	  76
  38	  80
  38	  85
  38	  89
  38	 112
  38	 128
  38	 136
  38	 141
  38	 150
  38	 156
  38	 160
  38	 174
  38	 177
  38	 178
  38	 179
  38	 194
  38	 197
  38	 207
  38	 218
  39	  57
  39	  59
  39	  66
  39	  69
  39	  74
  39	  81
  39	 162
  39	 184
  39	 201
  39	 211
  39	 213
  39	 216
  39	 217
  39	 222
  40	  41
  40	  43
  40	  66
  40	  74
  40	 135
  40	 140
  40	 152
  40	 158
  40	 173
  40	 179
  40	 192
  40	 206
  40	 232
  40	 248
  41	  42
  41	  46
  41	  52
  41	  65
  41	  67
  41	  80
  41	  81
  41	  88
  41	 101
  41	 103
  41	 105
  41	 110
  41	 113
  41	 125
  41	 137
  41	 138
  41	 140
  41	 155
  41	 157
  41	 168
  41	 175
  41	 184
  41	 188
  41	 195
  41	 197
  41	 203
  41	 221
  41	 230
  41	 243
  42	  51
  42	  55
  42	  71
  42	  86
  42	  89
  42	 105
  42	 107
  42	 115
  42	 121
  42	 127
  42	 141
  42	 144
  42	 149
  42	 156
  42	 171
  42	 173
  42	 181
  42	 193
  42	 194
  42	 208
  42	 209
  42	 220
  42	 224
  42	 225
  42	 238
  43	  48
  43	  52
  43	  71
  43	  73
  43	  78
  43	 118
  43	 135
  43	 151
  43	 176
  43	 199
  43	 207
  43	 210
  43	 234
  43	 237
  43	 243
  44	  51
  44	  86
  44	  99
  44	 100
  44	 101
  44	 102
  44	 108
  44	 125
  44	 138
  44	 139
  44	 149
  44	 153
  44	 179
  44	 181
  44	 191
  44	 211
  44	 232
  45	  47
  45	  53
  45	  57
  45	  65
  45	  86
  45	  93
  45	 100
  45	 109
  45	 122
  45	 123
  45	 125
  45	 133
  45	 142
  45	 150
  45	 164
  45	 167
  45	 178
  45	 188
  45	 196
  45	 199
  45	 217
  45	 223
  45	 233
  45	 235
  45	 244
  46	  61
  46	  64
  46	  68
  46	  71
  46	  72
  46	  76
  46	  77
  46	  91
  46	 104
  46	 105
  46	 143
  46	 176
  46	 199
  46	 207
  46	 221
  46	 233
  47	  52
  47	  54
  47	  56
  47	  63
  47	  64
  47	  68
  47	  76
  47	 101
  47	 117
  47	 131
  47	 138
  47	 154
  47	 159
  47	 161
  47	 169
  47	 170
  47	 180
  47	 182
  47	 183
  47	 190
  47	 208
  47	 225
  47	 232
  47	 241
  48	  50
  48	  58
  48	  64
  48	  73
  48	  74
  48	  90
  48	  92
  48	  96
  48	 101
  48	 116
  48	 125
  48	 127
  48	 136
  48	 150
  48	 160
  48	 165
  48	 167
  48	 170
  48	 173
  48	 189
  48	 195
  48	 196
  48	 197
  48	 203
  48	 206
  48	 219
  48	 224
  49	  52
  49	  63
  49	  75
  49	  84
  49	 103
  49	 121
  49	 129
  49	 141
  49	 143
  49	 156
  49	 160
  49	 183
  49	 209
  49	 218
  49	 234
  49	 237
  49	 241
  49	 246
  50	  75
  50	  81
  50	  85
  50	  88
  50	  89
  50	 108
  50	 116
  50	 118
  50	 130
  50	 171
  50	 193
  50	 194
  50	 200
  50	 207
  50	 214
  50	 218
  50	 223
  50	 231
  50	 232
  50	 237
  50	 243
  50	 244
  51	  62
  51	  64
  51	  75
  51	  88
  51	 106
  51	 111
  51	 116
  51	 122
  51	 147
  51	 157
  51	 195
  51	 203
  51	 222
  51	 234
  52	  54
  52	  60
  52	  77
  52	 103
  52	 119
  52	 129
  52	 133
  52	 154
  52	 161
  52	 168
  52	 172
  52	 208
  52	 209
  52	 226
  52	 239
  53	  58
  53	  61
  53	  65
  53	  72
  53	  79
  53	  82
  53	  84
  53	  87
  53	  89
  53	  96
  53	 106
  53	 114
  53	 118
  53	 119
  53	 127
  53	 156
  53	 166
  53	 174
  53	 179
  53	 182
  53	 194
  53	 205
  53	 221
  53	 223
  53	 235
  53	 242
  53	 246
  54	  74
  54	  88
  54	 100
  54	 102
  54	 130
  54	 149
  54	 150
  54	 154
  54	 173
  54	 177
  54	 192
  54	 197
  54	 221
  54	 245
  55	  74
  55	  81
  55	  83
  55	  87
  55	  96
  55	  99
  55	 101
  55	 126
  55	 135
  55	 157
  55	 161
  55	 164
  55	 177
  55	 178
  55	 187
  55	 189
  55	 190
  55	 191
  55	 218
  55	 226
  55	 239
  55	 242
  55	 244
  56	  61
  56	  64
  56	  76
  56	  95
  56	 134
  56	 142
  56	 159
  56	 162
  56	 182
  56	 194
  56	 202
  56	 219
  56	 221
  56	 223
  56	 241
  57	  60
  57	  64
  57	  66
  57	  75
  57	  83
  57	  91
  57	 116
  57	 119
  57	 128
  57	 137
  57	 139
  57	 165
  57	 173
  57	 180
  57	 190
  57	 207
  57	 214
  57	 221
  57	 231
  57	 241
  57	 243
  58	  61
  58	  67
  58	  69
  58	  72
  58	  79
  58	  89
  58	  95
  58	  96
  58	 108
  58	 121
  58	 137
  58	 145
  58	 162
  58	 163
  58	 176
  58	 201
  58	 220
  58	 230
  58	 248
  59	  80
  59	  84
  59	  89
  59	  91
  59	  92
  59	  93
  59	 100
  59	 129
  59	 132
  59	 139
  59	 144
  59	 149
  59	 167
  59	 170
  59	 182
  59	 185
  59	 187
  59	 188
  59	 201
  59	 222
  60	  88
  60	 100
  60	 102
  60	 105
  60	 116
  60	 126
  60	 135
  60	 143
  60	 146
  60	 174
  60	 193
  60	 200
  60	 210
  60	 213
  60	 214
  60	 216
  60	 220
  60	 224
  60	 226
  60	 227
  60	 229
  60	 234
  60	 241
  60	 246
  61	  65
  61	  67
  61	  85
  61	 101
  61	 108
  61	 119
  61	 122
  61	 128
  61	 129
  61	 131
  61	 144
  61	 167
  61	 180
  61	 199
  61	 202
  61	 211
  61	 216
  61	 226
  61	 235
  61	 240
  61	 247
  62	  74
  62	  98
  62	 106
  62	 144
  62	 147
  62	 151
  62	 158
  62	 159
  62	 169
  62	 170
  62	 181
  62	 185
  62	 189
  62	 190
  62	 203
  62	 206
  62	 212
  62	 217
  62	 226
  62	 238
  63	  69
  63	  76
  63	  81
  63	 100
  63	 104
  63	 113
  63	 117
  63	 125
  63	 136
  63	 147
  63	 163
  63	 181
  63	 188
  63	 189
  63	 196
  63	 205
  63	 208
  63	 210
  63	 223
  63	 229
  63	 232
  63	 240
  64	  66
  64	  73
  64	  84
  64	  89
  64	  90
  64	  91
  64	  99
  64	 103
  64	 111
  64	 126
  64	 127
  64	 136
  64	 140
  64	 166
  64	 169
  64	 172
  64	 180
  64	 186
  64	 190
  64	 194
  64	 208
  64	 212
  64	 218
  64	 228
  64	 234
  65	  74
  65	  82
  65	  87
  65	  90
  65	  92
  65	 116
  65	 122
  65	 148
  65	 166
  65	 187
  65	 195
  65	 200
  65	 230
  65	 243
  66	  92
  66	  96
  66	  98
  66	 100
  66	 149
  66	 150
  66	 210
  66	 233
  66	 242
  67	  75
  67	  86
  67	  87
  67	 101
  67	 105
  67	 106
  67	 109
  67	 119
  67	 132
  67	 162
  67	 164
  67	 166
  67	 168
  67	 169
  67	 174
  67	 179
  67	 182
  67	 185
  67	 191
  67	 206
  67	 210
  67	 230
  67	 234
  67	 238
  68	  92
  68	  93
  68	 120
  68	 123
  68	 129
  68	 133
  68	 178
  68	 183
  68	 191
  68	 192
  68	 193
  68	 198
  68	 204
  68	 212
  68	 216
  68	 226
  68	 230
  68	 231
  68	 241
  68	 247
  69	  90
  69	  91
  69	  99
  69	 105
  69	 106
  69	 111
  69	 132
  69	 137
  69	 147
  69	 154
  69	 158
  69	 165
  69	 182
  69	 208
  69	 213
  69	 245
  70	  74
  70	  97
  70	 113
  70	 125
  70	 130
  70	 134
  70	 146
  70	 151
  70	 164
  70	 165
  70	 169
  70	 170
  70	 192
  70	 193
  70	 195
  70	 215
  70	 220
  70	 247
  71	  72
  71	  74
  71	  93
  71	 103
  71	 117
  71	 123
  71	 135
  71	 144
  71	 153
  71	 157
  71	 161
  71	 174
  71	 185
  71	 190
  71	 214
  71	 224
  71	 238
  71	 240
  72	  78
  72	 117
  72	 118
  72	 121
  72	 123
  72	 128
  72	 156
  72	 163
  72	 200
  72	 202
  72	 205
  72	 209
  72	 211
  72	 212
  72	 217
  72	 224
  73	  82
  73	  85
  73	  89
  73	  97
  73	 104
  73	 110
  73	 126
  73	 135
  73	 144
  73	 155
  73	 160
  73	 197
  73	 229
  73	 235
  73	 240
  73	 247
  74	  84
  74	  94
  74	 101
  74	 107
  74	 111
  74	 123
  74	 127
  74	 132
  74	 144
  74	 149
  74	 150
  74	 152
  74	 160
  74	 199
  74	 202
  74	 212
  74	 213
  74	 239
  75	  89
  75	 114
  75	 118
  75	 126
  75	 138
  75	 143
  75	 184
  75	 190
  75	 191
  75	 199
  75	 213
  75	 227
  76	  86
  76	 116
  76	 117
  76	 143
  76	 144
  76	 148
  76	 172
  76	 186
  76	 197
  76	 200
  76	 206
  76	 220
  76	 223
  77	  88
  77	  97
  77	 101
  77	 123
  77	 128
  77	 130
  77	 133
  77	 156
  77	 158
  77	 176
  77	 196
  77	 201
  77	 208
  77	 215
  77	 234
  77	 244
  78	  84
  78	  95
  78	 103
  78	 116
  78	 117
  78	 118
  78	 127
  78	 134
  78	 169
  78	 174
  78	 211
  78	 217
  78	 248
  79	  81
  79	  86
  79	  97
  79	 101
  79	 112
  79	 122
  79	 130
  79	 140
  79	 147
  79	 159
  79	 168
  79	 170
  79	 174
  79	 179
  79	 185
  79	 188
  79	 194
  79	 204
  79	 211
  79	 223
  79	 226
  79	 233
  79	 243
  79	 248
  80	 102
  80	 126
  80	 137
  80	 147
  80	 159
  80	 162
  80	 175
  80	 179
  80	 180
  80	 190
  80	 192
  80	 228
  80	 230
  80	 232
  80	 243
  80	 244
  81	  99
  81	 116
  81	 141
  81	 153
  81	 154
  81	 171
  81	 182
  81	 191
  81	 199
  81	 201
  81	 211
  81	 215
  81	 220
  81	 223
  82	  91
  82	 114
  82	 115
  82	 118
  82	 148
  82	 151
  82	 174
  82	 180
  82	 183
  82	 192
  82	 209
  82	 216
  82	 218
  82	 220
  82	 227
  82	 230
  82	 234
  82	 235
  83	 100
  83	 101
  83	 153
  83	 156
  83	 186
  83	 211
  83	 230
  84	  89
  84	  92
  84	  95
  84	 103
  84	 120
  84	 121
  84	 138
  84	 139
  84	 141
  84	 164
  84	 170
  84	 202
  84	 205
  84	 210
  84	 222
  84	 224
  85	  86
  85	  94
  85	 115
  85	 119
  85	 129
  85	 132
  85	 141
  85	 145
  85	 149
  85	 152
  85	 164
  85	 168
  85	 187
  85	 195
  85	 207
  85	 213
  85	 216
  86	 107
  86	 111
  86	 135
  86	 137
  86	 145
  86	 150
  86	 152
  86	 158
  86	 160
  86	 166
  86	 172
  86	 178
  86	 212
  86	 214
  86	 221
  86	 222
  86	 225
  86	 226
  86	 241
  86	 245
  87	 107
  87	 131
  87	 134
  87	 156
  87	 184
  87	 192
  87	 219
  87	 232
  87	 235
  87	 240
  88	  89
  88	 104
  88	 105
  88	 107
  88	 112
  88	 134
  88	 136
  88	 139
  88	 154
  88	 158
  88	 164
  88	 178
  88	 190
  88	 222
  88	 240
  88	 244
  88	 245
  89	 106
  89	 107
  89	 131
  89	 140
  89	 141
  89	 147
  89	 150
  89	 166
  89	 172
  89	 192
  89	 193
  89	 199
  89	 225
  89	 236
  89	 237
  90	 112
  90	 115
  90	 149
  90	 158
  90	 161
  90	 183
  90	 193
  90	 207
  90	 237
  90	 247
  91	  92
  91	  95
  91	  99
  91	 113
  91	 138
  91	 159
  91	 196
  91	 202
  91	 205
  91	 207
  91	 211
  91	 214
  91	 229
  91	 248
  92	  95
  92	 127
  92	 133
  92	 149
  92	 153
  92	 165
  92	 172
  92	 173
  92	 192
  92	 193
  93	  96
  93	 102
  93	 114
  93	 130
  93	 195
  93	 200
  93	 226
  93	 233
  93	 240
  94	  98
  94	 109
  94	 114
  94	 127
  94	 133
  94	 136
  94	 140
  94	 141
  94	 163
  94	 166
  94	 172
  94	 173
  94	 189
  94	 192
  94	 205
  94	 207
  94	 209
  94	 211
  94	 222
  94	 246
  94	 247
  95	 101
  95	 110
  95	 121
  95	 138
  95	 142
  95	 183
  95	 190
  95	 195
  95	 204
  95	 213
  95	 225
  96	 111
  96	 125
  96	 127
  96	 131
  96	 141
  96	 200
  96	 202
  96	 219
  96	 226
  96	 242
  96	 245
  97	 108
  97	 115
  97	 118
  97	 122
  97	 133
  97	 158
  97	 166
  97	 167
  97	 175
  97	 177
  97	 207
  97	 222
  97	 238
  98	 103
  98	 108
  98	 112
  98	 135
  98	 139
  98	 145
  98	 149
  98	 155
  98	 156
  98	 159
  98	 160
  98	 183
  98	 205
  98	 206
  98	 218
  98	 219
  98	 224
  98	 237
  99	 109
  99	 112
  99	 113
  99	 115
  99	 116
  99	 117
  99	 124
  99	 157
  99	 158
  99	 175
  99	 186
  99	 203
  99	 206
 100	 103
 100	 156
 100	 188
 100	 193
 100	 220
 100	 228
 100	 233
 100	 234
 100	 246
 101	 105
 101	 114
 101	 148
 101	 159
 101	 184
 101	 188
 101	 197
 101	 199
 101	 206
 101	 214
 101	 215
 101	 216
 101	 218
 101	 219
 101	 222
 101	 227
 101	 230
 101	 231
 101	 245
 101	 248
 102	 105
 102	 112
 102	 115
 102	 116
 102	 118
 102	 124
 102	 128
 102	 138
 102	 145
 102	 148
 102	 154
 102	 178
 102	 183
 102	 185
 102	 209
 102	 219
 102	 241
 102	 242
 102	 243
 103	 112
 103	 118
 103	 133
 103	 153
 103	 167
 103	 178
 103	 183
 103	 187
 103	 189
 103	 230
 103	 233
 103	 238
 104	 108
 104	 122
 104	 123
 104	 134
 104	 153
 104	 165
 104	 173
 104	 180
 104	 191
 104	 196
 104	 199
 104	 211
 104	 235
 105	 109
 105	 126
 105	 130
 105	 131
 105	 136
 105	 143
 105	 146
 105	 149
 105	 168
 105	 170
 105	 180
 105	 206
 105	 207
 105	 232
 106	 107
 106	 121
 106	 125
 106	 139
 106	 140
 106	 142
 106	 149
 106	 171
 106	 179
 106	 183
 106	 188
 106	 200
 106	 210
 106	 220
 106	 223
 106	 228
 106	 232
 106	 241
 106	 245
 107	 112
 107	 133
 107	 136
 107	 147
 107	 148
 107	 149
 107	 165
 107	 174
 107	 186
 107	 199
 107	 213
 107	 228
 107	 233
 108	 124
 108	 127
 108	 146
 108	 149
 108	 159
 108	 163
 108	 172
 108	 188
 108	 198
 108	 201
 108	 205
 108	 210
 108	 227
 108	 230
 109	 110
 109	 118
 109	 127
 109	 138
 109	 156
 109	 172
 109	 173
 109	 180
 109	 186
 109	 196
 109	 206
 109	 207
 109	 211
 109	 228
 109	 231
 109	 243
 110	 111
 110	 130
 110	 139
 110	 140
 110	 156
 110	 158
 110	 177
 110	 205
 110	 216
 110	 223
 110	 229
 110	 235
 110	 240
 110	 243
 110	 248
 111	 121
 111	 126
 111	 141
 111	 155
 111	 172
 111	 179
 111	 191
 111	 195
 111	 213
 111	 218
 111	 227
 111	 245
 112	 132
 112	 133
 112	 142
 112	 148
 112	 157
 112	 177
 112	 188
 112	 193
 112	 205
 112	 208
 112	 213
 112	 216
 112	 222
 112	 223
 112	 231
 112	 243
 113	 138
 113	 140
 113	 156
 113	 158
 113	 159
 113	 164
 113	 179
 113	 196
 113	 198
 113	 199
 113	 201
 113	 204
 113	 205
 113	 230
 113	 234
 113	 244
 113	 248
 114	 124
 114	 145
 114	 151
 114	 152
 114	 156
 114	 157
 114	 162
 114	 176
 114	 199
 114	 203
 114	 206
 114	 214
 114	 218
 114	 226
 114	 242
 115	 119
 115	 125
 115	 132
 115	 134
 115	 150
 115	 171
 115	 174
 115	 177
 115	 185
 115	 195
 115	 231
 116	 119
 116	 130
 116	 133
 116	 168
 116	 184
 116	 190
 116	 191
 116	 200
 116	 223
 116	 229
 116	 234
 116	 243
 117	 131
 117	 140
 117	 147
 117	 157
 117	 183
 117	 184
 117	 233
 117	 234
 117	 240
 117	 246
 117	 248
 118	 123
 118	 143
 118	 147
 118	 152
 118	 154
 118	 176
 118	 177
 118	 178
 118	 184
 118	 206
 118	 207
 118	 208
 118	 211
 118	 214
 118	 218
 118	 235
 118	 237
 119	 125
 119	 131
 119	 156
 119	 174
 119	 188
 119	 194
 119	 195
 119	 196
 119	 202
 119	 209
 119	 233
 119	 238
 119	 247
 120	 121
 120	 123
 120	 133
 120	 170
 120	 178
 120	 181
 120	 184
 120	 190
 120	 191
 120	 214
 120	 218
 120	 239
 120	 243
 120	 247
 121	 127
 121	 132
 121	 133
 121	 135
 121	 137
 121	 139
 121	 149
 121	 178
 121	 179
 121	 187
 121	 201
 121	 206
 121	 209
 121	 228
 121	 230
 121	 232
 121	 242
 122	 123
 122	 131
 122	 141
 122	 153
 122	 160
 122	 165
 122	 168
 122	 176
 122	 192
 122	 208
 122	 209
 122	 221
 122	 229
 122	 242
 123	 141
 123	 161
 123	 180
 123	 187
 123	 189
 123	 206
 123	 211
 123	 216
 123	 226
 124	 141
 124	 143
 124	 146
 124	 148
 124	 158
 124	 161
 124	 165
 124	 170
 124	 185
 124	 193
 124	 199
 124	 211
 124	 216
 124	 237
 125	 137
 125	 185
 125	 186
 125	 189
 125	 202
 125	 212
 125	 227
 125	 231
 126	 147
 126	 151
 126	 162
 126	 186
 126	 188
 126	 192
 126	 208
 126	 222
 126	 228
 126	 230
 126	 237
 126	 242
 126	 246
 127	 134
 127	 152
 127	 176
 127	 178
 127	 200
 127	 207
 127	 239
 128	 132
 128	 137
 128	 144
 128	 159
 128	 173
 128	 180
 128	 181
 128	 187
 128	 197
 128	 224
 128	 234
 128	 241
 128	 244
 128	 246
 129	 130
 129	 132
 129	 140
 129	 148
 129	 152
 129	 177
 129	 187
 129	 191
 129	 208
 129	 211
 129	 213
 129	 227
 129	 234
 129	 241
 129	 248
 130	 147
 130	 160
 130	 165
 130	 178
 130	 191
 130	 202
 130	 229
 130	 230
 130	 231
 130	 237
 130	 247
 131	 132
 131	 165
 131	 217
 131	 218
 131	 223
 131	 225
 131	 230
 131	 234
 131	 244
 132	 159
 132	 165
 132	 175
 132	 178
 132	 199
 132	 203
 132	 214
 132	 219
 132	 222
 132	 240
 133	 134
 133	 153
 133	 160
 133	 167
 133	 204
 133	 220
 133	 228
 133	 231
 133	 233
 133	 242
 134	 148
 134	 151
 134	 156
 134	 160
 134	 163
 134	 177
 134	 185
 134	 205
 134	 212
 134	 224
 135	 138
 135	 146
 135	 153
 135	 170
 135	 185
 135	 194
 135	 196
 135	 199
 135	 213
 135	 227
 135	 232
 136	 137
 136	 147
 136	 173
 136	 174
 136	 181
 136	 203
 136	 213
 136	 221
 136	 223
 136	 224
 136	 227
 136	 247
 137	 146
 137	 167
 137	 168
 137	 171
 137	 177
 137	 178
 137	 180
 137	 182
 137	 185
 137	 204
 137	 213
 137	 224
 137	 237
 137	 245
 138	 152
 138	 168
 138	 173
 138	 189
 138	 196
 138	 197
 138	 214
 138	 215
 138	 220
 138	 245
 139	 154
 139	 207
 139	 212
 139	 226
 139	 238
 139	 240
 139	 246
 140	 186
 140	 204
 140	 217
 140	 218
 140	 226
 140	 227
 140	 230
 140	 237
 140	 244
 140	 247
 141	 174
 141	 175
 141	 178
 141	 180
 141	 195
 141	 221
 141	 227
 141	 231
 141	 232
 141	 243
 141	 244
 142	 143
 142	 156
 142	 171
 142	 177
 142	 199
 142	 212
 143	 154
 143	 174
 143	 188
 143	 196
 143	 205
 143	 208
 143	 213
 143	 223
 143	 230
 144	 153
 144	 185
 144	 208
 144	 247
 145	 156
 145	 162
 145	 187
 145	 192
 145	 201
 145	 218
 145	 219
 145	 236
 145	 238
 146	 150
 146	 152
 146	 154
 146	 158
 146	 164
 146	 179
 146	 181
 146	 184
 146	 186
 146	 198
 146	 208
 146	 214
 146	 218
 146	 232
 146	 234
 146	 239
 146	 248
 147	 149
 147	 155
 147	 190
 147	 195
 147	 205
 147	 210
 147	 220
 147	 243
 148	 149
 148	 159
 148	 167
 148	 204
 148	 210
 148	 212
 148	 214
 148	 216
 148	 217
 148	 244
 149	 155
 149	 156
 149	 175
 149	 184
 149	 203
 149	 214
 149	 215
 149	 218
 149	 219
 149	 222
 149	 223
 149	 235
 150	 156
 150	 181
 150	 197
 150	 200
 150	 224
 150	 231
 150	 237
 151	 161
 151	 166
 151	 171
 151	 181
 151	 195
 152	 158
 152	 163
 152	 169
 152	 179
 152	 188
 152	 200
 152	 205
 152	 220
 152	 225
 152	 226
 152	 235
 152	 237
 152	 247
 153	 167
 153	 170
 153	 177
 153	 188
 153	 191
 153	 203
 153	 207
 153	 213
 153	 220
 153	 228
 153	 248
 154	 172
 154	 176
 154	 178
 154	 197
 154	 199
 154	 201
 154	 211
 154	 212
 154	 215
 154	 218
 154	 219
 154	 228
 154	 232
 155	 166
 155	 170
 155	 176
 155	 191
 155	 197
 155	 199
 155	 200
 155	 201
 155	 212
 155	 215
 155	 217
 155	 223
 155	 225
 155	 227
 155	 242
 155	 246
 156	 157
 156	 162
 156	 168
 156	 180
 156	 187
 156	 203
 156	 207
 156	 215
 156	 218
 156	 221
 156	 229
 156	 242
 156	 245
 157	 164
 157	 190
 157	 191
 157	 234
 157	 243
 157	 247
 158	 170
 158	 174
 158	 176
 158	 204
 158	 206
 158	 215
 158	 230
 158	 243
 159	 161
 159	 165
 159	 166
 159	 186
 159	 219
 159	 222
 159	 240
 160	 168
 160	 175
 160	 212
 160	 216
 160	 236
 160	 247
 161	 166
 161	 179
 161	 188
 161	 198
 161	 199
 161	 219
 161	 222
 161	 227
 161	 242
 162	 166
 162	 169
 162	 175
 162	 183
 162	 200
 162	 215
 162	 217
 162	 221
 162	 222
 162	 225
 162	 235
 163	 179
 163	 183
 163	 205
 163	 233
 163	 235
 164	 168
 164	 171
 164	 174
 164	 177
 164	 178
 164	 190
 164	 202
 164	 210
 164	 220
 164	 241
 164	 244
 165	 184
 165	 201
 165	 202
 165	 220
 165	 229
 165	 233
 165	 245
 166	 167
 166	 172
 166	 175
 166	 188
 166	 198
 166	 214
 166	 236
 166	 237
 167	 169
 167	 172
 167	 173
 167	 206
 167	 208
 167	 218
 167	 226
 167	 233
 167	 239
 167	 245
 168	 175
 168	 180
 168	 181
 168	 182
 168	 190
 168	 194
 168	 205
 168	 207
 168	 220
 168	 224
 168	 243
 169	 181
 169	 189
 169	 205
 169	 223
 169	 224
 169	 229
 169	 234
 169	 235
 169	 239
 170	 178
 170	 187
 170	 193
 170	 199
 170	 203
 170	 215
 170	 236
 171	 200
 171	 202
 171	 203
 171	 206
 171	 215
 171	 218
 171	 237
 171	 242
 172	 185
 172	 197
 172	 217
 172	 221
 172	 239
 172	 240
 173	 179
 173	 182
 173	 192
 173	 203
 173	 206
 173	 219
 173	 225
 173	 227
 173	 230
 174	 183
 174	 194
 174	 201
 174	 203
 174	 215
 174	 219
 174	 230
 174	 237
 174	 239
 175	 177
 175	 187
 175	 212
 175	 216
 175	 218
 175	 244
 176	 192
 176	 193
 176	 199
 176	 232
 176	 243
 176	 246
 176	 247
 177	 180
 177	 190
 177	 208
 177	 209
 177	 214
 177	 224
 177	 231
 177	 239
 178	 179
 178	 194
 178	 196
 178	 209
 178	 216
 178	 228
 178	 230
 178	 238
 178	 243
 178	 247
 179	 180
 179	 187
 179	 195
 179	 201
 179	 204
 179	 227
 179	 239
 180	 186
 180	 192
 180	 196
 180	 213
 180	 227
 180	 234
 181	 206
 181	 216
 181	 231
 181	 239
 181	 247
 182	 184
 182	 189
 182	 192
 182	 194
 182	 196
 182	 206
 182	 216
 182	 218
 182	 219
 182	 220
 182	 233
 182	 234
 182	 236
 183	 184
 183	 186
 183	 205
 183	 217
 183	 220
 183	 224
 183	 227
 183	 237
 183	 240
 184	 189
 184	 207
 184	 211
 184	 221
 184	 245
 185	 187
 185	 203
 185	 204
 185	 205
 185	 216
 185	 223
 185	 246
 186	 187
 186	 198
 186	 206
 186	 214
 186	 238
 187	 189
 187	 200
 187	 212
 187	 235
 187	 246
 188	 194
 188	 204
 188	 206
 188	 212
 188	 224
 188	 231
 188	 243
 189	 194
 189	 218
 189	 228
 189	 244
 190	 223
 190	 242
 191	 201
 191	 212
 191	 213
 191	 214
 191	 221
 191	 222
 192	 199
 192	 204
 192	 212
 192	 217
 192	 224
 193	 198
 193	 207
 193	 217
 193	 229
 193	 232
 193	 234
 193	 238
 194	 197
 194	 215
 194	 218
 194	 222
 194	 231
 194	 237
 195	 196
 195	 227
 195	 242
 195	 243
 196	 203
 196	 211
 196	 222
 196	 238
 196	 242
 196	 248
 197	 206
 197	 210
 197	 211
 197	 219
 197	 223
 198	 211
 198	 212
 198	 214
 198	 231
 198	 235
 198	 246
 199	 210
 199	 223
 199	 232
 199	 238
 199	 247
 200	 225
 200	 226
 200	 234
 200	 236
 201	 203
 201	 213
 201	 217
 201	 226
 201	 229
 201	 237
 201	 239
 201	 244
 202	 238
 203	 209
 203	 210
 203	 213
 203	 216
 203	 224
 203	 226
 203	 230
 203	 234
 203	 243
 204	 206
 204	 207
 204	 216
 204	 219
 204	 238
 204	 247
 205	 211
 205	 216
 205	 246
 206	 218
 206	 226
 206	 228
 206	 232
 206	 236
 206	 245
 207	 241
 208	 211
 208	 216
 208	 231
 208	 235
 209	 210
 209	 212
 209	 220
 209	 236
 209	 246
 210	 220
 210	 231
 210	 241
 210	 248
 211	 223
 211	 230
 211	 231
 212	 215
 212	 217
 213	 214
 213	 224
 213	 233
 213	 237
 213	 238
 213	 244
 214	 241
 215	 218
 215	 219
 215	 222
 215	 223
 215	 240
 216	 218
 216	 234
 216	 235
 216	 240
 217	 219
 217	 242
 217	 244
 217	 246
 218	 219
 218	 221
 218	 228
 218	 229
 218	 234
 218	 248
 219	 239
 220	 224
 220	 227
 220	 235
 220	 246
 220	 248
 221	 227
 221	 230
 221	 236
 221	 248
 222	 230
 222	 240
 222	 241
 222	 243
 222	 244
 223	 248
 224	 228
 224	 236
 224	 247
 226	 234
 226	 248
 228	 230
 228	 232
 228	 241
 228	 245
 228	 246
 229	 236
 229	 237
 229	 238
 229	 240
 229	 247
 230	 232
 230	 234
 230	 237
 230	 241
 230	 243
 231	 239
 231	 241
 231	 243
 232	 239
 232	 240
 232	 241
 233	 234
 236	 240
 236	 241
 236	 242
 237	 244
 237	 247
 237	 248
 238	 239
 238	 248
 240	 241
 241	 245
 242	 244
 243	 245
;
